WARNING: for repeatability, setting FPU to use double precision
============================[ Problem Statistics ]=============================
|                                                                             |
|  Number of variables:         26095                                         |
|  Number of clauses:            1252                                         |
|  Parse time:                   0.00 s                                       |
|                                                                             |
c ============================[ Search Statistics ]==============================
c | Conflicts |          ORIGINAL         |          LEARNT          | Progress |
c |           |    Vars  Clauses Literals |    Limit  Clauses Lit/Cl |          |
c ===============================================================================
c Switched to VSIDS.
c Switched to LRB.
c Switched to VSIDS.
c Switched to LRB.
c Switched to VSIDS.
c ===============================================================================
restarts                  : 1682
conflicts                 : 1717693        (7038 /sec)
decisions                 : 35116387       (0.00 % random) (143895 /sec)
propagations              : 256935711      (1052832 /sec)
conflict literals         : 32871324       (27.98 % deleted)

conflicts w/ DIP found    : 1081412        (62.96 % of conflicts)
conflicts w/ dangerous DIP: 0              (0.00 % of conflicts)
conflicts w/ DIP-learning : 28618          (1.67 % of conflicts)
decisions on ext vars     : 540199         (1.54 % of decisions)
total ext vars            : 1832        
tried delete ext vars     : 34          
deleted ext vars          : 34          
max ext vars              : 1798        

Memory used               : 130.00 MB
CPU time                  : 244.043 s
DIP computation time      : 8.9193 s (3.65 % of total time)
ER_sel time               : 1.54204 s
ER_add time               : 0.006604 s
ER_delC time              : 0 s
ER_delV time              : 0.00084 s
ER_sub time               : 2.04129 s
ER_stat time              : 0 s

UNSATISFIABLE
